Generation Seed Number                  
   1.00000000000000     
    12.7079122976000001    0.0011756055000000    0.0008811854000000
     0.0008364107000000   12.7083453828999993    0.0007722263000000
     0.0011909367000000    0.0008417306000000   12.7081039880999995
   Ag   Bi   I 
     8     8    32
Direct
  0.0019282926929947  0.9971235281387436  0.0045852421870691
  0.2449307085878019  0.2399141173376407  0.9765156232040937
  0.7597015981463500  0.7550479830420613  0.0227592121832245
  0.0045544904678820  0.5107992615233954  0.4769282466006288
  0.4890631767062672  0.9952533972391606  0.5233512439202315
  0.7749094163618935  0.5242881483679227  0.2500521278135963
  0.4755091530139310  0.2251666885707380  0.7489199691742101
  0.2467890405952673  0.7527219963520722  0.4961242630487206
  0.5024351128889535  0.4974638617364491  0.9997448555793511
  0.0013400970220445  0.2518478570846199  0.2462578919228022
  0.0003345076107450  0.7505853743830855  0.7500279643049907
  0.2501730523454597  0.0003605951184369  0.2497892323214899
  0.7489899344299857  0.9988616234525196  0.7534182231719058
  0.5018266213445486  0.7513500255977732  0.2533731450535726
  0.2485811777481786  0.4988367086026102  0.7462845883209326
  0.7482036421557510  0.2519823219450075  0.4998691721415440
  0.2397290889107992  0.0103096393303943  0.0055055029166127
  0.2595474018239869  0.9903891274640344  0.4941825665386261
  0.2520416814125923  0.4872649396708724  0.9974099263230087
  0.2442373345213937  0.5112552211733856  0.5078765117878490
  0.7609089351260536  0.9949018476185501  0.9918463496488741
  0.7380488572617878  0.0020646409424145  0.5023712147624266
  0.7428114218888453  0.5082916788604521  0.0197794291669737
  0.7591654705428041  0.4926409203801541  0.4803018280451781
  0.0054615720716384  0.2394260677866313  0.0079729348689170
  0.9982750571812318  0.2621554608409227  0.4972539490364838
  0.9894578171045794  0.7600423379249008  0.9944488366820039
  0.0097030671611620  0.7403768834357365  0.5055388363112101
  0.4915781116250173  0.2572680268770569  0.9796908320566544
  0.5076007229023887  0.2409225705460898  0.5188310592297896
  0.5129123676682710  0.7480834171371669  0.0023419944343175
  0.4890900519474073  0.7560731294277758  0.4917228822324162
  0.0049911473437163  0.9998465287960272  0.2572386383065535
  0.0002950509605597  0.9950283317178119  0.7424932283156167
  0.0060167930286141  0.4919245559333305  0.2424014724267280
  0.0031046436217252  0.5034027302442539  0.7566046581522414
  0.4967214173851389  0.9972002473384904  0.2429733644857706
  0.5084216438346658  0.9943669427414861  0.7573810344858742
  0.4908308543852442  0.5045660391665763  0.2464955154306168
  0.4957133807118197  0.5093943119678741  0.7534036144007246
  0.2470554528012698  0.2469990098130808  0.2566150100723377
  0.2446441666246812  0.2583317888253873  0.7422352535070686
  0.2498369088256496  0.7553048789359451  0.2423724632393132
  0.2448244139353903  0.7502395706277127  0.7574863788819926
  0.7545383999240585  0.2409619342501088  0.2532473828762534
  0.7591862348793157  0.2459639439478423  0.7461948794737268
  0.7419311388343246  0.7554773521578966  0.2574170305327357
  0.7531858946357914  0.7534662904274327  0.7432602149227776
 
  0.00000000E+00  0.00000000E+00  0.00000000E+00
  0.00000000E+00  0.00000000E+00  0.00000000E+00
  0.00000000E+00  0.00000000E+00  0.00000000E+00
  0.00000000E+00  0.00000000E+00  0.00000000E+00
  0.00000000E+00  0.00000000E+00  0.00000000E+00
  0.00000000E+00  0.00000000E+00  0.00000000E+00
  0.00000000E+00  0.00000000E+00  0.00000000E+00
  0.00000000E+00  0.00000000E+00  0.00000000E+00
  0.00000000E+00  0.00000000E+00  0.00000000E+00
  0.00000000E+00  0.00000000E+00  0.00000000E+00
  0.00000000E+00  0.00000000E+00  0.00000000E+00
  0.00000000E+00  0.00000000E+00  0.00000000E+00
  0.00000000E+00  0.00000000E+00  0.00000000E+00
  0.00000000E+00  0.00000000E+00  0.00000000E+00
  0.00000000E+00  0.00000000E+00  0.00000000E+00
  0.00000000E+00  0.00000000E+00  0.00000000E+00
  0.00000000E+00  0.00000000E+00  0.00000000E+00
  0.00000000E+00  0.00000000E+00  0.00000000E+00
  0.00000000E+00  0.00000000E+00  0.00000000E+00
  0.00000000E+00  0.00000000E+00  0.00000000E+00
  0.00000000E+00  0.00000000E+00  0.00000000E+00
  0.00000000E+00  0.00000000E+00  0.00000000E+00
  0.00000000E+00  0.00000000E+00  0.00000000E+00
  0.00000000E+00  0.00000000E+00  0.00000000E+00
  0.00000000E+00  0.00000000E+00  0.00000000E+00
  0.00000000E+00  0.00000000E+00  0.00000000E+00
  0.00000000E+00  0.00000000E+00  0.00000000E+00
  0.00000000E+00  0.00000000E+00  0.00000000E+00
  0.00000000E+00  0.00000000E+00  0.00000000E+00
  0.00000000E+00  0.00000000E+00  0.00000000E+00
  0.00000000E+00  0.00000000E+00  0.00000000E+00
  0.00000000E+00  0.00000000E+00  0.00000000E+00
  0.00000000E+00  0.00000000E+00  0.00000000E+00
  0.00000000E+00  0.00000000E+00  0.00000000E+00
  0.00000000E+00  0.00000000E+00  0.00000000E+00
  0.00000000E+00  0.00000000E+00  0.00000000E+00
  0.00000000E+00  0.00000000E+00  0.00000000E+00
  0.00000000E+00  0.00000000E+00  0.00000000E+00
  0.00000000E+00  0.00000000E+00  0.00000000E+00
  0.00000000E+00  0.00000000E+00  0.00000000E+00
  0.00000000E+00  0.00000000E+00  0.00000000E+00
  0.00000000E+00  0.00000000E+00  0.00000000E+00
  0.00000000E+00  0.00000000E+00  0.00000000E+00
  0.00000000E+00  0.00000000E+00  0.00000000E+00
  0.00000000E+00  0.00000000E+00  0.00000000E+00
  0.00000000E+00  0.00000000E+00  0.00000000E+00
  0.00000000E+00  0.00000000E+00  0.00000000E+00
  0.00000000E+00  0.00000000E+00  0.00000000E+00
